(declare-datatypes () ((Nat (Z) (S (p Nat)))))
(declare-datatypes () ((list (nil) (cons (head Nat) (tail list)))))
(declare-fun le (Nat Nat) Bool)
(declare-fun equal (Nat Nat) Bool)
(declare-fun count (Nat list) Nat)
(declare-fun append (list list) list)
(assert (forall ((y Nat)) (= (le Z y) true)))
(assert (forall ((z Nat)) (= (le (S z) Z) false)))
(assert
  (forall ((z Nat) (x2 Nat)) (= (le (S z) (S x2)) (le z x2))))
(assert (= (equal Z Z) true))
(assert (forall ((z Nat)) (= (equal Z (S z)) false)))
(assert (forall ((x2 Nat)) (= (equal (S x2) Z) false)))
(assert
  (forall ((x2 Nat) (y2 Nat))
    (= (equal (S x2) (S y2)) (equal x2 y2))))
(assert (forall ((x Nat)) (= (count x nil) Z)))
(assert
  (forall ((x Nat) (z Nat) (ys list))
    (=> (= (equal x z) true)
      (= (count x (cons z ys)) (S (count x ys))))))
(assert
  (forall ((x Nat) (z Nat) (ys list))
    (=> (= (equal x z) false) (= (count x (cons z ys)) (count x ys)))))
(assert (forall ((y list)) (= (append nil y) y)))
(assert
  (forall ((y list) (z Nat) (xs list))
    (= (append (cons z xs) y) (cons z (append xs y)))))
(assert-not
  (forall ((n Nat) (xs list) (ys list))
    (le (count n xs) (count n (append xs ys)))))
(check-sat)
